DIMACS2
10 38 10 73 127 26 105 129 148 86 35
p edge 160 672
e 0 60 2.0
e 0 124 1.0
e 0 94 1.0
e 0 24 1.0
e 1 156 1.0
e 1 64 2.0
e 1 26 24.0
e 1 88 1.0
e 2 93 1.0
e 2 29 2.0
e 2 113 1.0
e 2 34 2.0
e 3 86 18.0
e 3 91 2.0
e 3 101 2.0
e 3 125 2.0
e 4 2 1.0
e 4 72 1.0
e 4 140 2.0
e 4 115 1.0
e 5 9 1.0
e 5 146 1.0
e 5 38 3.0
e 5 47 1.0
e 6 34 2.0
e 6 46 2.0
e 6 76 1.0
e 6 112 1.0
e 7 90 6.0
e 7 88 2.0
e 7 86 7.0
e 7 142 1.0
e 8 153 1.0
e 8 5 1.0
e 8 128 1.0
e 8 147 1.0
e 9 103 1.0
e 9 105 43.0
e 9 96 1.0
e 9 81 2.0
e 10 112 27.0
e 10 158 49.0
e 10 74 32.0
e 10 79 13.0
e 10 105 32.0
e 10 73 2.0
e 10 35 39.0
e 10 26 5.0
e 10 38 31.0
e 10 127 10.0
e 10 86 9.0
e 10 129 22.0
e 10 148 49.0
e 10 159 41.0
e 10 1 18.0
e 11 48 1.0
e 11 87 2.0
e 11 25 1.0
e 11 104 2.0
e 12 118 1.0
e 12 86 8.0
e 12 82 2.0
e 12 69 1.0
e 13 40 1.0
e 13 111 2.0
e 13 95 1.0
e 13 24 1.0
e 14 131 1.0
e 14 61 1.0
e 14 8 1.0
e 14 66 1.0
e 15 100 1.0
e 15 0 1.0
e 15 117 1.0
e 15 156 2.0
e 16 141 1.0
e 16 81 1.0
e 16 46 1.0
e 16 0 1.0
e 17 32 1.0
e 17 68 2.0
e 17 83 1.0
e 17 123 1.0
e 18 67 1.0
e 18 117 1.0
e 18 85 3.0
e 18 143 1.0
e 19 122 1.0
e 19 115 1.0
e 19 5 1.0
e 19 52 1.0
e 20 50 2.0
e 20 152 2.0
e 20 17 1.0
e 20 64 2.0
e 21 113 1.0
e 21 61 1.0
e 21 155 1.0
e 21 139 1.0
e 22 60 5.0
e 22 3 2.0
e 22 100 1.0
e 22 74 1.0
e 23 107 2.0
e 23 59 1.0
e 23 139 1.0
e 23 81 1.0
e 24 139 1.0
e 24 68 1.0
e 24 76 1.0
e 24 153 2.0
e 25 12 1.0
e 25 85 1.0
e 25 61 1.0
e 25 2 1.0
e 26 79 6.0
e 26 39 22.0
e 26 98 20.0
e 26 74 45.0
e 26 35 5.0
e 26 38 3.0
e 27 42 1.0
e 27 13 1.0
e 27 23 1.0
e 27 35 26.0
e 28 54 1.0
e 28 117 1.0
e 28 119 1.0
e 28 22 1.0
e 29 151 1.0
e 29 63 1.0
e 29 73 42.0
e 29 153 1.0
e 30 113 1.0
e 30 2 1.0
e 30 45 1.0
e 30 64 1.0
e 31 89 1.0
e 31 86 25.0
e 31 61 2.0
e 31 152 2.0
e 32 55 1.0
e 32 114 1.0
e 32 2 1.0
e 32 104 1.0
e 33 36 1.0
e 33 158 2.0
e 33 146 1.0
e 33 20 1.0
e 34 153 1.0
e 34 139 1.0
e 34 51 1.0
e 34 111 1.0
e 35 34 20.0
e 35 106 18.0
e 35 44 5.0
e 35 38 4.0
e 35 73 36.0
e 35 86 21.0
e 35 105 23.0
e 35 127 28.0
e 35 129 2.0
e 35 148 21.0
e 36 9 1.0
e 36 7 3.0
e 36 87 1.0
e 36 49 1.0
e 37 95 1.0
e 37 26 5.0
e 37 103 1.0
e 37 55 1.0
e 38 76 20.0
e 38 50 6.0
e 38 119 16.0
e 38 82 48.0
e 38 73 2.0
e 38 127 18.0
e 38 86 37.0
e 38 105 1.0
e 39 32 3.0
e 39 143 1.0
e 39 13 1.0
e 39 11 2.0
e 40 90 2.0
e 40 116 1.0
e 40 2 1.0
e 40 94 1.0
e 41 151 1.0
e 41 31 1.0
e 41 89 1.0
e 41 130 1.0
e 42 33 1.0
e 42 153 1.0
e 42 44 2.0
e 42 155 1.0
e 43 31 2.0
e 43 64 2.0
e 43 72 1.0
e 43 132 1.0
e 44 130 2.0
e 44 21 1.0
e 44 16 1.0
e 44 65 1.0
e 45 79 1.0
e 45 152 2.0
e 45 77 1.0
e 45 38 12.0
e 46 48 1.0
e 46 54 2.0
e 46 139 1.0
e 46 128 1.0
e 47 15 1.0
e 47 60 1.0
e 47 89 2.0
e 47 112 1.0
e 48 4 1.0
e 48 43 1.0
e 48 41 1.0
e 48 127 3.0
e 49 134 1.0
e 49 144 1.0
e 49 28 1.0
e 49 61 1.0
e 50 133 2.0
e 50 76 3.0
e 50 143 1.0
e 50 110 3.0
e 51 75 1.0
e 51 150 1.0
e 51 85 1.0
e 51 52 1.0
e 52 38 37.0
e 52 8 3.0
e 52 4 2.0
e 53 78 1.0
e 53 6 1.0
e 53 62 2.0
e 53 123 2.0
e 54 113 1.0
e 54 129 45.0
e 54 50 1.0
e 54 5 1.0
e 55 78 1.0
e 55 145 1.0
e 55 79 1.0
e 55 20 1.0
e 56 48 1.0
e 56 41 1.0
e 56 155 1.0
e 56 72 1.0
e 57 65 1.0
e 57 157 2.0
e 57 52 2.0
e 57 118 1.0
e 58 79 1.0
e 58 7 4.0
e 58 121 2.0
e 58 12 1.0
e 59 60 5.0
e 59 39 2.0
e 59 149 1.0
e 59 25 1.0
e 60 114 5.0
e 60 86 20.0
e 60 81 1.0
e 60 147 2.0
e 61 103 1.0
e 61 96 2.0
e 61 40 2.0
e 61 126 1.0
e 62 95 1.0
e 62 29 1.0
e 62 59 1.0
e 62 149 1.0
e 63 85 1.0
e 63 105 36.0
e 63 152 1.0
e 63 12 2.0
e 64 73 43.0
e 64 144 2.0
e 64 62 2.0
e 64 92 2.0
e 65 63 2.0
e 65 136 1.0
e 65 89 1.0
e 65 145 1.0
e 66 122 1.0
e 66 25 3.0
e 66 38 37.0
e 66 98 1.0
e 67 129 36.0
e 67 104 1.0
e 67 92 1.0
e 67 103 1.0
e 68 59 2.0
e 68 105 40.0
e 68 137 1.0
e 68 122 2.0
e 69 14 1.0
e 69 26 9.0
e 69 57 2.0
e 69 2 2.0
e 70 33 3.0
e 70 81 1.0
e 70 99 5.0
e 70 56 5.0
e 71 19 2.0
e 71 60 1.0
e 71 78 1.0
e 71 18 1.0
e 72 150 1.0
e 72 151 1.0
e 72 55 1.0
e 72 136 2.0
e 73 40 16.0
e 73 118 31.0
e 73 157 15.0
e 73 121 35.0
e 73 86 11.0
e 73 26 9.0
e 73 105 37.0
e 73 148 24.0
e 73 127 6.0
e 73 129 36.0
e 74 62 1.0
e 74 133 1.0
e 74 142 1.0
e 74 145 1.0
e 75 100 1.0
e 75 112 1.0
e 75 135 2.0
e 75 60 1.0
e 76 96 1.0
e 76 73 19.0
e 76 79 1.0
e 76 115 1.0
e 77 9 2.0
e 77 87 2.0
e 77 125 2.0
e 77 59 1.0
e 78 29 1.0
e 78 90 1.0
e 78 63 1.0
e 78 112 1.0
e 79 122 1.0
e 79 89 1.0
e 79 123 1.0
e 79 59 1.0
e 80 42 1.0
e 80 24 1.0
e 80 64 2.0
e 80 44 2.0
e 81 156 1.0
e 81 59 1.0
e 81 110 3.0
e 81 155 1.0
e 82 93 1.0
e 82 14 1.0
e 82 30 2.0
e 82 104 1.0
e 83 121 2.0
e 83 124 1.0
e 83 149 1.0
e 83 110 1.0
e 84 139 1.0
e 84 153 1.0
e 84 111 1.0
e 84 124 1.0
e 85 54 1.0
e 85 49 1.0
e 85 72 1.0
e 85 26 6.0
e 86 125 21.0
e 86 47 11.0
e 86 138 39.0
e 86 108 17.0
e 86 105 23.0
e 86 127 40.0
e 86 26 37.0
e 86 148 5.0
e 87 71 2.0
e 87 42 1.0
e 87 80 1.0
e 87 16 1.0
e 88 28 1.0
e 88 20 1.0
e 88 56 1.0
e 88 145 1.0
e 89 124 1.0
e 89 53 1.0
e 89 135 1.0
e 89 81 1.0
e 90 153 2.0
e 90 137 1.0
e 90 91 2.0
e 90 17 1.0
e 91 148 7.0
e 91 100 2.0
e 91 136 1.0
e 91 53 1.0
e 92 57 1.0
e 92 140 1.0
e 92 79 1.0
e 92 88 1.0
e 93 0 1.0
e 93 8 1.0
e 93 106 1.0
e 93 141 1.0
e 94 46 1.0
e 94 60 1.0
e 94 150 1.0
e 94 68 2.0
e 95 18 1.0
e 95 25 1.0
e 95 69 3.0
e 95 130 1.0
e 96 81 1.0
e 96 35 40.0
e 96 83 1.0
e 96 109 1.0
e 97 108 2.0
e 97 37 3.0
e 97 81 1.0
e 97 111 1.0
e 98 126 3.0
e 98 106 2.0
e 98 27 1.0
e 98 117 3.0
e 99 71 1.0
e 99 151 1.0
e 99 41 1.0
e 100 29 1.0
e 100 153 1.0
e 100 121 2.0
e 100 37 1.0
e 101 151 2.0
e 101 128 1.0
e 101 66 2.0
e 101 63 1.0
e 102 84 1.0
e 102 150 1.0
e 102 25 1.0
e 102 131 1.0
e 103 90 1.0
e 103 39 2.0
e 103 30 1.0
e 103 22 1.0
e 104 116 1.0
e 104 75 1.0
e 104 59 1.0
e 104 148 43.0
e 105 12 39.0
e 105 11 16.0
e 105 18 48.0
e 105 126 20.0
e 105 148 19.0
e 105 127 29.0
e 105 129 29.0
e 105 26 11.0
e 106 2 1.0
e 106 111 1.0
e 106 108 2.0
e 106 56 2.0
e 107 41 1.0
e 107 87 1.0
e 107 116 1.0
e 107 40 1.0
e 108 94 1.0
e 108 40 1.0
e 108 76 2.0
e 109 99 1.0
e 109 119 2.0
e 109 62 1.0
e 109 87 1.0
e 110 8 2.0
e 110 0 1.0
e 110 101 2.0
e 110 127 26.0
e 111 39 2.0
e 111 11 1.0
e 111 19 2.0
e 111 8 1.0
e 112 87 3.0
e 112 20 1.0
e 112 154 2.0
e 112 113 1.0
e 113 128 1.0
e 113 142 1.0
e 113 48 2.0
e 113 125 1.0
e 114 89 1.0
e 114 81 1.0
e 114 52 1.0
e 114 85 1.0
e 115 101 1.0
e 115 124 2.0
e 115 38 7.0
e 115 26 34.0
e 116 66 1.0
e 116 87 2.0
e 116 133 1.0
e 117 68 1.0
e 117 78 1.0
e 117 101 1.0
e 117 67 1.0
e 118 43 1.0
e 118 102 1.0
e 118 69 1.0
e 118 78 2.0
e 119 113 1.0
e 119 101 2.0
e 119 152 1.0
e 120 91 1.0
e 120 97 1.0
e 120 55 1.0
e 120 145 1.0
e 121 82 1.0
e 121 48 1.0
e 121 118 2.0
e 122 54 1.0
e 122 20 1.0
e 122 83 1.0
e 122 143 1.0
e 123 33 1.0
e 123 94 1.0
e 123 157 2.0
e 123 34 1.0
e 124 96 1.0
e 124 15 2.0
e 124 26 33.0
e 125 37 2.0
e 125 59 1.0
e 125 142 1.0
e 125 67 2.0
e 126 130 2.0
e 126 112 1.0
e 126 34 1.0
e 126 66 2.0
e 127 107 26.0
e 127 145 46.0
e 127 112 26.0
e 127 156 1.0
e 128 139 1.0
e 128 79 1.0
e 128 22 1.0
e 128 20 1.0
e 129 13 30.0
e 129 46 32.0
e 129 70 3.0
e 129 141 47.0
e 129 127 32.0
e 129 86 26.0
e 129 148 3.0
e 129 26 42.0
e 129 38 18.0
e 130 136 1.0
e 130 14 1.0
e 130 63 1.0
e 130 70 1.0
e 131 35 31.0
e 131 155 1.0
e 131 100 1.0
e 131 103 1.0
e 132 8 1.0
e 132 85 1.0
e 132 130 1.0
e 132 54 2.0
e 133 131 1.0
e 133 5 1.0
e 133 9 1.0
e 133 135 1.0
e 134 121 2.0
e 134 130 1.0
e 134 107 2.0
e 134 142 1.0
e 135 67 2.0
e 135 144 3.0
e 135 59 1.0
e 135 52 1.0
e 136 58 2.0
e 136 135 1.0
e 136 127 35.0
e 136 23 1.0
e 137 79 1.0
e 137 55 1.0
e 137 9 1.0
e 137 75 1.0
e 138 127 44.0
e 138 2 1.0
e 138 94 1.0
e 138 74 1.0
e 139 96 1.0
e 139 36 1.0
e 139 127 39.0
e 139 148 7.0
e 140 35 27.0
e 140 142 2.0
e 140 39 2.0
e 140 141 2.0
e 141 111 3.0
e 141 34 2.0
e 141 98 2.0
e 141 42 1.0
e 142 84 1.0
e 142 88 1.0
e 143 137 1.0
e 143 65 1.0
e 143 32 1.0
e 143 116 1.0
e 144 101 1.0
e 144 59 1.0
e 144 37 2.0
e 144 127 4.0
e 145 35 21.0
e 145 20 1.0
e 145 77 1.0
e 145 64 2.0
e 146 60 2.0
e 146 15 1.0
e 146 63 1.0
e 146 23 1.0
e 147 57 1.0
e 147 112 1.0
e 147 36 1.0
e 147 81 1.0
e 148 135 30.0
e 148 87 48.0
e 148 74 30.0
e 148 19 24.0
e 148 127 21.0
e 148 26 18.0
e 149 120 1.0
e 149 45 1.0
e 149 95 2.0
e 149 2 1.0
e 150 8 1.0
e 150 101 1.0
e 150 76 1.0
e 150 85 2.0
e 151 38 22.0
e 151 62 2.0
e 151 63 1.0
e 151 80 2.0
e 152 42 2.0
e 152 77 2.0
e 152 71 1.0
e 152 26 20.0
e 153 44 1.0
e 153 4 2.0
e 153 127 24.0
e 154 130 2.0
e 154 127 2.0
e 154 37 1.0
e 154 4 1.0
e 155 29 1.0
e 155 52 2.0
e 155 114 1.0
e 155 72 1.0
e 156 67 2.0
e 156 116 1.0
e 156 90 1.0
e 156 33 2.0
e 157 5 1.0
e 157 30 2.0
e 157 52 1.0
e 158 92 1.0
e 158 0 1.0
e 158 57 2.0
e 158 45 1.0
e 159 102 1.0
e 159 103 1.0
e 159 89 1.0
